GaAs  # Created using ipyvasp.lattice.POSCAR.new method
  5.00000000000000    
    0.5000000000000000    0.5000000000000000    0.0000000000000000
    0.0000000000000000    0.5000000000000000    0.5000000000000000
    0.5000000000000000    0.0000000000000000    0.5000000000000000
  Ga    As
  1    1
Direct
   0.0000000000000000   0.0000000000000000   0.0000000000000000
   0.2500000000000000   0.2500000000000000   0.2500000000000000